Translating instance to solver...

Set parameter TimeLimit to value 28800
Gurobi Optimizer version 11.0.2 build v11.0.2rc0 (linux64 - "Ubuntu 22.04.4 LTS")

CPU model: Intel(R) Xeon(R) Gold 5120 CPU @ 2.20GHz, instruction set [SSE2|AVX|AVX2|AVX512]
Thread count: 28 physical cores, 56 logical processors, using up to 28 threads

Academic license 2463511 - for non-commercial use only - registered to lu___@cefet-rj.br
Optimize a model with 181495 rows, 83733 columns and 404996 nonzeros
Model fingerprint: 0x0a44959d
Variable types: 1 continuous, 83732 integer (83640 binary)
Coefficient statistics:
  Matrix range     [1e+00, 1e+05]
  Objective range  [3e-01, 8e-01]
  Bounds range     [1e+00, 8e+01]
  RHS range        [1e+00, 9e+01]
Presolve removed 148772 rows and 70390 columns
Presolve time: 3.32s
Presolved: 32723 rows, 13343 columns, 92847 nonzeros
Variable types: 0 continuous, 13343 integer (13252 binary)

Root relaxation: objective 1.698205e+00, 4010 iterations, 0.48 seconds (0.54 work units)
Total elapsed time = 5.40s (DegenMoves)

    Nodes    |    Current Node    |     Objective Bounds      |     Work
 Expl Unexpl |  Obj  Depth IntInf | Incumbent    BestBd   Gap | It/Node Time

     0     0    1.69821    0   86          -    1.69821      -     -    7s
H    0     0                       1.9794550    1.69821  14.2%     -    8s
     0     0    1.69821    0  180    1.97946    1.69821  14.2%     -    8s
     0     0    1.69821    0   94    1.97946    1.69821  14.2%     -   11s
     0     0     cutoff    0         1.97946    1.97946  0.00%     -   12s

Cutting planes:
  Learned: 12
  Gomory: 1
  Implied bound: 60
  MIR: 58
  StrongCG: 2
  Zero half: 4
  RLT: 13
  Relax-and-lift: 1

Explored 1 nodes (33713 simplex iterations) in 12.43 seconds (10.78 work units)
Thread count was 28 (of 56 available processors)

Solution count 1: 1.97946 

Optimal solution found (tolerance 1.00e-04)
Best objective 1.979455000000e+00, best bound 1.979455000000e+00, gap 0.0000%

Solver Wallclock Time (for this epsilon): 12.480495929718018 s
Python wallclock Time (for this epsilon): 25.969287157058716 s


Total Elapsed Time (since program call): 4713.321023225784 s

Results:

I = 1.9794549999999997 mA
C = 62.0 points
C ~= 24.8 km^2

Minimum Epsilon for this instance = 10
Maximum Epsilon for this instance = 100

Current Epsilon = 60


Preprocessing Time (for this epsilon): 0.0164182186126709 s


Updated solution vectors:
sol_I = [-1.529455,-1.529455,-1.835346,-1.9794549999999997,-1.9794550000000002,-1.9794549999999997]
sol_C = [17.0,22.0,30.0,41.0,50.0,62.0]
sol_eps = [10,20,30,40,50,60]
sol_gap = [0.0,0.0,0.0,0.0,4.440892098500626e-16,0.0]
